12 20
1 4 6 10 11
1 3 5 7 8
3 6 8 9 10 11
5 6 7 8 9 11
3 4 5 8 10 12
1 2 8 10 12
2 3 6 8 10 12
1 3 4 8 11
5 6 8 11 12
1 2 4 6 8 12
1 2 3 7 11 12
1 2 3 4 6
1 3 5 7 11 12
2 4 5 9 10
2 3 4 8 9 12
1 7 8 9 10 12
1 3 6 9 11 12
2 3 5 8 9 10
3 5 6 9 10 12
1 2 6 8 10
6 6 4 6 5 7 8 5 7 6 7 4 6 5 8 5 7 5 8 8
